
Gurobi 13.0.0 (mac64[arm]) logging started Sun Dec  7 08:30:57 2025

Set parameter LogFile to value "/Users/jjung404/PyProjects/qiga/data/steiner-opt/ES20FST/es20fst07_log.txt"
Set parameter OutputFlag to value 1
Gurobi Optimizer version 13.0.0 build v13.0.0rc1 (mac64[arm] - Darwin 24.6.0 24G325)

CPU model: Apple M3
Thread count: 8 physical cores, 8 logical processors, using up to 8 threads

Optimize a model with 183 rows, 177 columns and 509 nonzeros (Min)
Model fingerprint: 0x72b836f1
Model has 59 linear objective coefficients
Variable types: 118 continuous, 59 integer (59 binary)
Coefficient statistics:
  Matrix range     [1e+00, 2e+01]
  Objective range  [1e+04, 3e+06]
  Bounds range     [1e+00, 1e+00]
  RHS range        [1e+00, 2e+01]
Found heuristic solution: objective 5.767915e+07
Presolve removed 36 rows and 27 columns
Presolve time: 0.00s
Presolved: 147 rows, 150 columns, 452 nonzeros
Variable types: 100 continuous, 50 integer (50 binary)

Root relaxation: objective 1.496104e+07, 101 iterations, 0.00 seconds (0.00 work units)

    Nodes    |    Current Node    |     Objective Bounds      |     Work
 Expl Unexpl |  Obj  Depth IntInf | Incumbent    BestBd   Gap | It/Node Time

     0     0 1.4961e+07    0   31 5.7679e+07 1.4961e+07  74.1%     -    0s
H    0     0                    4.457134e+07 1.4961e+07  66.4%     -    0s
H    0     0                    4.340498e+07 1.4961e+07  65.5%     -    0s
H    0     0                    4.035120e+07 1.4961e+07  62.9%     -    0s
H    0     0                    3.965277e+07 2.2276e+07  43.8%     -    0s
H    0     0                    3.848640e+07 2.2276e+07  42.1%     -    0s
H    0     0                    3.696690e+07 2.2276e+07  39.7%     -    0s
H    0     0                    3.580054e+07 2.2276e+07  37.8%     -    0s
     0     0 2.2276e+07    0   37 3.5801e+07 2.2276e+07  37.8%     -    0s
     0     0 2.3853e+07    0   30 3.5801e+07 2.3853e+07  33.4%     -    0s
     0     0 2.3868e+07    0   39 3.5801e+07 2.3868e+07  33.3%     -    0s
H    0     0                    3.566048e+07 2.5371e+07  28.9%     -    0s
     0     0 2.5371e+07    0   35 3.5660e+07 2.5371e+07  28.9%     -    0s
     0     0 2.5613e+07    0   32 3.5660e+07 2.5613e+07  28.2%     -    0s
     0     0 2.5683e+07    0   32 3.5660e+07 2.5683e+07  28.0%     -    0s
     0     0 2.5691e+07    0   37 3.5660e+07 2.5691e+07  28.0%     -    0s
     0     0 2.5691e+07    0   38 3.5660e+07 2.5691e+07  28.0%     -    0s
     0     0 2.6355e+07    0   39 3.5660e+07 2.6355e+07  26.1%     -    0s
     0     0 2.6531e+07    0   34 3.5660e+07 2.6531e+07  25.6%     -    0s
     0     0 2.6578e+07    0   32 3.5660e+07 2.6578e+07  25.5%     -    0s
     0     0 2.6638e+07    0   31 3.5660e+07 2.6638e+07  25.3%     -    0s
     0     0 2.6639e+07    0   31 3.5660e+07 2.6639e+07  25.3%     -    0s
H    0     0                    3.561522e+07 2.6639e+07  25.2%     -    0s
     0     0 2.7115e+07    0   37 3.5615e+07 2.7115e+07  23.9%     -    0s
H    0     0                    3.559731e+07 2.7196e+07  23.6%     -    0s
H    0     0                    3.536805e+07 2.7196e+07  23.1%     -    0s
     0     0 2.7196e+07    0   28 3.5368e+07 2.7196e+07  23.1%     -    0s
H    0     0                    3.514733e+07 2.7220e+07  22.6%     -    0s
     0     0 2.7220e+07    0   33 3.5147e+07 2.7220e+07  22.6%     -    0s
     0     0 2.7225e+07    0   30 3.5147e+07 2.7225e+07  22.5%     -    0s
     0     0 2.7265e+07    0   37 3.5147e+07 2.7265e+07  22.4%     -    0s
     0     0 2.7402e+07    0   36 3.5147e+07 2.7402e+07  22.0%     -    0s
     0     0 2.7402e+07    0   36 3.5147e+07 2.7402e+07  22.0%     -    0s
     0     0 2.7425e+07    0   37 3.5147e+07 2.7425e+07  22.0%     -    0s
     0     0 2.7459e+07    0   37 3.5147e+07 2.7459e+07  21.9%     -    0s
     0     0 2.7459e+07    0   37 3.5147e+07 2.7459e+07  21.9%     -    0s
     0     0 2.7459e+07    0   37 3.5147e+07 2.7459e+07  21.9%     -    0s
     0     0 2.7459e+07    0   36 3.5147e+07 2.7459e+07  21.9%     -    0s
H    0     0                    3.510207e+07 2.7459e+07  21.8%     -    0s
     0     2 2.7459e+07    0   36 3.5102e+07 2.7459e+07  21.8%     -    0s
H 2802   614                    3.498013e+07 3.2023e+07  8.45%  10.0    0s
H 3994   442                    3.498013e+07 3.3194e+07  5.11%  10.8    0s
H 5136    25                    3.493487e+07 3.4284e+07  1.86%  10.5    0s

Cutting planes:
  Learned: 3
  Gomory: 9
  Cover: 26
  Implied bound: 10
  Dual implied bound: 3
  MIR: 126
  StrongCG: 1
  Flow cover: 137
  Flow path: 17
  Inf proof: 57
  Zero half: 2
  Network: 35
  RLT: 5
  Relax-and-lift: 6

Explored 5309 nodes (55317 simplex iterations) in 0.41 seconds (0.39 work units)
Thread count was 8 (of 8 available processors)

Solution count 10: 3.49349e+07 3.49801e+07 3.51021e+07 ... 3.69669e+07

Optimal solution found (tolerance 1.00e-04)
Best objective 3.493487400000e+07, best bound 3.493487400000e+07, gap 0.0000%
